2300, 0, 0, 35, 1
2301, 0, 1, 70, 3
2302, 0, 2, 89, 0
2303, 0, 3, 85, 2
2304, 1, 0, 49, 2
2305, 1, 1, 33, 3
2306, 1, 2, 38, 1
2307, 1, 3, 89, 0
2308, 2, 0, 98, 3
2309, 2, 1, 40, 0
2310, 2, 2, 63, 1
2311, 2, 3, 33, 2
2312, 3, 0, 58, 3
2313, 3, 1, 84, 2
2314, 3, 2, 75, 1
2315, 3, 3, 54, 0
